p cnf 288 1569
-1 -14 0
-1 -15 0
-1 -16 0
-1 -17 0
-1 -18 0
-2 -13 0
-2 -15 0
-2 -16 0
-2 -17 0
-2 -18 0
-3 -13 0
-3 -14 0
-3 -16 0
-3 -17 0
-3 -18 0
-4 -13 0
-4 -14 0
-4 -15 0
-4 -17 0
-4 -18 0
-5 -13 0
-5 -14 0
-5 -15 0
-5 -16 0
-5 -18 0
-6 -13 0
-6 -14 0
-6 -15 0
-6 -16 0
-6 -17 0
-1 -32 0
-1 -33 0
-1 -34 0
-1 -35 0
-1 -36 0
-2 -31 0
-2 -33 0
-2 -34 0
-2 -35 0
-2 -36 0
-3 -31 0
-3 -32 0
-3 -34 0
-3 -35 0
-3 -36 0
-4 -31 0
-4 -32 0
-4 -33 0
-4 -35 0
-4 -36 0
-5 -31 0
-5 -32 0
-5 -33 0
-5 -34 0
-5 -36 0
-6 -31 0
-6 -32 0
-6 -33 0
-6 -34 0
-6 -35 0
-1 -50 0
-1 -51 0
-1 -52 0
-1 -53 0
-1 -54 0
-2 -49 0
-2 -51 0
-2 -52 0
-2 -53 0
-2 -54 0
-3 -49 0
-3 -50 0
-3 -52 0
-3 -53 0
-3 -54 0
-4 -49 0
-4 -50 0
-4 -51 0
-4 -53 0
-4 -54 0
-5 -49 0
-5 -50 0
-5 -51 0
-5 -52 0
-5 -54 0
-6 -49 0
-6 -50 0
-6 -51 0
-6 -52 0
-6 -53 0
-7 -26 0
-7 -27 0
-7 -28 0
-7 -29 0
-7 -30 0
-8 -25 0
-8 -27 0
-8 -28 0
-8 -29 0
-8 -30 0
-9 -25 0
-9 -26 0
-9 -28 0
-9 -29 0
-9 -30 0
-10 -25 0
-10 -26 0
-10 -27 0
-10 -29 0
-10 -30 0
-11 -25 0
-11 -26 0
-11 -27 0
-11 -28 0
-11 -30 0
-12 -25 0
-12 -26 0
-12 -27 0
-12 -28 0
-12 -29 0
-7 -38 0
-7 -39 0
-7 -40 0
-7 -41 0
-7 -42 0
-8 -37 0
-8 -39 0
-8 -40 0
-8 -41 0
-8 -42 0
-9 -37 0
-9 -38 0
-9 -40 0
-9 -41 0
-9 -42 0
-10 -37 0
-10 -38 0
-10 -39 0
-10 -41 0
-10 -42 0
-11 -37 0
-11 -38 0
-11 -39 0
-11 -40 0
-11 -42 0
-12 -37 0
-12 -38 0
-12 -39 0
-12 -40 0
-12 -41 0
-7 -56 0
-7 -57 0
-7 -58 0
-7 -59 0
-7 -60 0
-8 -55 0
-8 -57 0
-8 -58 0
-8 -59 0
-8 -60 0
-9 -55 0
-9 -56 0
-9 -58 0
-9 -59 0
-9 -60 0
-10 -55 0
-10 -56 0
-10 -57 0
-10 -59 0
-10 -60 0
-11 -55 0
-11 -56 0
-11 -57 0
-11 -58 0
-11 -60 0
-12 -55 0
-12 -56 0
-12 -57 0
-12 -58 0
-12 -59 0
-13 -20 0
-13 -21 0
-13 -22 0
-13 -23 0
-13 -24 0
-14 -19 0
-14 -21 0
-14 -22 0
-14 -23 0
-14 -24 0
-15 -19 0
-15 -20 0
-15 -22 0
-15 -23 0
-15 -24 0
-16 -19 0
-16 -20 0
-16 -21 0
-16 -23 0
-16 -24 0
-17 -19 0
-17 -20 0
-17 -21 0
-17 -22 0
-17 -24 0
-18 -19 0
-18 -20 0
-18 -21 0
-18 -22 0
-18 -23 0
-13 -26 0
-13 -27 0
-13 -28 0
-13 -29 0
-13 -30 0
-14 -25 0
-14 -27 0
-14 -28 0
-14 -29 0
-14 -30 0
-15 -25 0
-15 -26 0
-15 -28 0
-15 -29 0
-15 -30 0
-16 -25 0
-16 -26 0
-16 -27 0
-16 -29 0
-16 -30 0
-17 -25 0
-17 -26 0
-17 -27 0
-17 -28 0
-17 -30 0
-18 -25 0
-18 -26 0
-18 -27 0
-18 -28 0
-18 -29 0
-13 -44 0
-13 -45 0
-13 -46 0
-13 -47 0
-13 -48 0
-14 -43 0
-14 -45 0
-14 -46 0
-14 -47 0
-14 -48 0
-15 -43 0
-15 -44 0
-15 -46 0
-15 -47 0
-15 -48 0
-16 -43 0
-16 -44 0
-16 -45 0
-16 -47 0
-16 -48 0
-17 -43 0
-17 -44 0
-17 -45 0
-17 -46 0
-17 -48 0
-18 -43 0
-18 -44 0
-18 -45 0
-18 -46 0
-18 -47 0
-13 -68 0
-13 -69 0
-13 -70 0
-13 -71 0
-13 -72 0
-14 -67 0
-14 -69 0
-14 -70 0
-14 -71 0
-14 -72 0
-15 -67 0
-15 -68 0
-15 -70 0
-15 -71 0
-15 -72 0
-16 -67 0
-16 -68 0
-16 -69 0
-16 -71 0
-16 -72 0
-17 -67 0
-17 -68 0
-17 -69 0
-17 -70 0
-17 -72 0
-18 -67 0
-18 -68 0
-18 -69 0
-18 -70 0
-18 -71 0
-19 -32 0
-19 -33 0
-19 -34 0
-19 -35 0
-19 -36 0
-20 -31 0
-20 -33 0
-20 -34 0
-20 -35 0
-20 -36 0
-21 -31 0
-21 -32 0
-21 -34 0
-21 -35 0
-21 -36 0
-22 -31 0
-22 -32 0
-22 -33 0
-22 -35 0
-22 -36 0
-23 -31 0
-23 -32 0
-23 -33 0
-23 -34 0
-23 -36 0
-24 -31 0
-24 -32 0
-24 -33 0
-24 -34 0
-24 -35 0
-19 -62 0
-19 -63 0
-19 -64 0
-19 -65 0
-19 -66 0
-20 -61 0
-20 -63 0
-20 -64 0
-20 -65 0
-20 -66 0
-21 -61 0
-21 -62 0
-21 -64 0
-21 -65 0
-21 -66 0
-22 -61 0
-22 -62 0
-22 -63 0
-22 -65 0
-22 -66 0
-23 -61 0
-23 -62 0
-23 -63 0
-23 -64 0
-23 -66 0
-24 -61 0
-24 -62 0
-24 -63 0
-24 -64 0
-24 -65 0
-19 -74 0
-19 -75 0
-19 -76 0
-19 -77 0
-19 -78 0
-20 -73 0
-20 -75 0
-20 -76 0
-20 -77 0
-20 -78 0
-21 -73 0
-21 -74 0
-21 -76 0
-21 -77 0
-21 -78 0
-22 -73 0
-22 -74 0
-22 -75 0
-22 -77 0
-22 -78 0
-23 -73 0
-23 -74 0
-23 -75 0
-23 -76 0
-23 -78 0
-24 -73 0
-24 -74 0
-24 -75 0
-24 -76 0
-24 -77 0
-25 -32 0
-25 -33 0
-25 -34 0
-25 -35 0
-25 -36 0
-26 -31 0
-26 -33 0
-26 -34 0
-26 -35 0
-26 -36 0
-27 -31 0
-27 -32 0
-27 -34 0
-27 -35 0
-27 -36 0
-28 -31 0
-28 -32 0
-28 -33 0
-28 -35 0
-28 -36 0
-29 -31 0
-29 -32 0
-29 -33 0
-29 -34 0
-29 -36 0
-30 -31 0
-30 -32 0
-30 -33 0
-30 -34 0
-30 -35 0
-25 -44 0
-25 -45 0
-25 -46 0
-25 -47 0
-25 -48 0
-26 -43 0
-26 -45 0
-26 -46 0
-26 -47 0
-26 -48 0
-27 -43 0
-27 -44 0
-27 -46 0
-27 -47 0
-27 -48 0
-28 -43 0
-28 -44 0
-28 -45 0
-28 -47 0
-28 -48 0
-29 -43 0
-29 -44 0
-29 -45 0
-29 -46 0
-29 -48 0
-30 -43 0
-30 -44 0
-30 -45 0
-30 -46 0
-30 -47 0
-25 -62 0
-25 -63 0
-25 -64 0
-25 -65 0
-25 -66 0
-26 -61 0
-26 -63 0
-26 -64 0
-26 -65 0
-26 -66 0
-27 -61 0
-27 -62 0
-27 -64 0
-27 -65 0
-27 -66 0
-28 -61 0
-28 -62 0
-28 -63 0
-28 -65 0
-28 -66 0
-29 -61 0
-29 -62 0
-29 -63 0
-29 -64 0
-29 -66 0
-30 -61 0
-30 -62 0
-30 -63 0
-30 -64 0
-30 -65 0
-31 -38 0
-31 -39 0
-31 -40 0
-31 -41 0
-31 -42 0
-32 -37 0
-32 -39 0
-32 -40 0
-32 -41 0
-32 -42 0
-33 -37 0
-33 -38 0
-33 -40 0
-33 -41 0
-33 -42 0
-34 -37 0
-34 -38 0
-34 -39 0
-34 -41 0
-34 -42 0
-35 -37 0
-35 -38 0
-35 -39 0
-35 -40 0
-35 -42 0
-36 -37 0
-36 -38 0
-36 -39 0
-36 -40 0
-36 -41 0
-31 -44 0
-31 -45 0
-31 -46 0
-31 -47 0
-31 -48 0
-32 -43 0
-32 -45 0
-32 -46 0
-32 -47 0
-32 -48 0
-33 -43 0
-33 -44 0
-33 -46 0
-33 -47 0
-33 -48 0
-34 -43 0
-34 -44 0
-34 -45 0
-34 -47 0
-34 -48 0
-35 -43 0
-35 -44 0
-35 -45 0
-35 -46 0
-35 -48 0
-36 -43 0
-36 -44 0
-36 -45 0
-36 -46 0
-36 -47 0
-31 -56 0
-31 -57 0
-31 -58 0
-31 -59 0
-31 -60 0
-32 -55 0
-32 -57 0
-32 -58 0
-32 -59 0
-32 -60 0
-33 -55 0
-33 -56 0
-33 -58 0
-33 -59 0
-33 -60 0
-34 -55 0
-34 -56 0
-34 -57 0
-34 -59 0
-34 -60 0
-35 -55 0
-35 -56 0
-35 -57 0
-35 -58 0
-35 -60 0
-36 -55 0
-36 -56 0
-36 -57 0
-36 -58 0
-36 -59 0
-31 -68 0
-31 -69 0
-31 -70 0
-31 -71 0
-31 -72 0
-32 -67 0
-32 -69 0
-32 -70 0
-32 -71 0
-32 -72 0
-33 -67 0
-33 -68 0
-33 -70 0
-33 -71 0
-33 -72 0
-34 -67 0
-34 -68 0
-34 -69 0
-34 -71 0
-34 -72 0
-35 -67 0
-35 -68 0
-35 -69 0
-35 -70 0
-35 -72 0
-36 -67 0
-36 -68 0
-36 -69 0
-36 -70 0
-36 -71 0
-37 -44 0
-37 -45 0
-37 -46 0
-37 -47 0
-37 -48 0
-38 -43 0
-38 -45 0
-38 -46 0
-38 -47 0
-38 -48 0
-39 -43 0
-39 -44 0
-39 -46 0
-39 -47 0
-39 -48 0
-40 -43 0
-40 -44 0
-40 -45 0
-40 -47 0
-40 -48 0
-41 -43 0
-41 -44 0
-41 -45 0
-41 -46 0
-41 -48 0
-42 -43 0
-42 -44 0
-42 -45 0
-42 -46 0
-42 -47 0
-37 -56 0
-37 -57 0
-37 -58 0
-37 -59 0
-37 -60 0
-38 -55 0
-38 -57 0
-38 -58 0
-38 -59 0
-38 -60 0
-39 -55 0
-39 -56 0
-39 -58 0
-39 -59 0
-39 -60 0
-40 -55 0
-40 -56 0
-40 -57 0
-40 -59 0
-40 -60 0
-41 -55 0
-41 -56 0
-41 -57 0
-41 -58 0
-41 -60 0
-42 -55 0
-42 -56 0
-42 -57 0
-42 -58 0
-42 -59 0
-37 -62 0
-37 -63 0
-37 -64 0
-37 -65 0
-37 -66 0
-38 -61 0
-38 -63 0
-38 -64 0
-38 -65 0
-38 -66 0
-39 -61 0
-39 -62 0
-39 -64 0
-39 -65 0
-39 -66 0
-40 -61 0
-40 -62 0
-40 -63 0
-40 -65 0
-40 -66 0
-41 -61 0
-41 -62 0
-41 -63 0
-41 -64 0
-41 -66 0
-42 -61 0
-42 -62 0
-42 -63 0
-42 -64 0
-42 -65 0
-37 -68 0
-37 -69 0
-37 -70 0
-37 -71 0
-37 -72 0
-38 -67 0
-38 -69 0
-38 -70 0
-38 -71 0
-38 -72 0
-39 -67 0
-39 -68 0
-39 -70 0
-39 -71 0
-39 -72 0
-40 -67 0
-40 -68 0
-40 -69 0
-40 -71 0
-40 -72 0
-41 -67 0
-41 -68 0
-41 -69 0
-41 -70 0
-41 -72 0
-42 -67 0
-42 -68 0
-42 -69 0
-42 -70 0
-42 -71 0
-43 -50 0
-43 -51 0
-43 -52 0
-43 -53 0
-43 -54 0
-44 -49 0
-44 -51 0
-44 -52 0
-44 -53 0
-44 -54 0
-45 -49 0
-45 -50 0
-45 -52 0
-45 -53 0
-45 -54 0
-46 -49 0
-46 -50 0
-46 -51 0
-46 -53 0
-46 -54 0
-47 -49 0
-47 -50 0
-47 -51 0
-47 -52 0
-47 -54 0
-48 -49 0
-48 -50 0
-48 -51 0
-48 -52 0
-48 -53 0
-43 -62 0
-43 -63 0
-43 -64 0
-43 -65 0
-43 -66 0
-44 -61 0
-44 -63 0
-44 -64 0
-44 -65 0
-44 -66 0
-45 -61 0
-45 -62 0
-45 -64 0
-45 -65 0
-45 -66 0
-46 -61 0
-46 -62 0
-46 -63 0
-46 -65 0
-46 -66 0
-47 -61 0
-47 -62 0
-47 -63 0
-47 -64 0
-47 -66 0
-48 -61 0
-48 -62 0
-48 -63 0
-48 -64 0
-48 -65 0
-49 -56 0
-49 -57 0
-49 -58 0
-49 -59 0
-49 -60 0
-50 -55 0
-50 -57 0
-50 -58 0
-50 -59 0
-50 -60 0
-51 -55 0
-51 -56 0
-51 -58 0
-51 -59 0
-51 -60 0
-52 -55 0
-52 -56 0
-52 -57 0
-52 -59 0
-52 -60 0
-53 -55 0
-53 -56 0
-53 -57 0
-53 -58 0
-53 -60 0
-54 -55 0
-54 -56 0
-54 -57 0
-54 -58 0
-54 -59 0
-55 -74 0
-55 -75 0
-55 -76 0
-55 -77 0
-55 -78 0
-56 -73 0
-56 -75 0
-56 -76 0
-56 -77 0
-56 -78 0
-57 -73 0
-57 -74 0
-57 -76 0
-57 -77 0
-57 -78 0
-58 -73 0
-58 -74 0
-58 -75 0
-58 -77 0
-58 -78 0
-59 -73 0
-59 -74 0
-59 -75 0
-59 -76 0
-59 -78 0
-60 -73 0
-60 -74 0
-60 -75 0
-60 -76 0
-60 -77 0
-61 -74 0
-61 -75 0
-61 -76 0
-61 -77 0
-61 -78 0
-62 -73 0
-62 -75 0
-62 -76 0
-62 -77 0
-62 -78 0
-63 -73 0
-63 -74 0
-63 -76 0
-63 -77 0
-63 -78 0
-64 -73 0
-64 -74 0
-64 -75 0
-64 -77 0
-64 -78 0
-65 -73 0
-65 -74 0
-65 -75 0
-65 -76 0
-65 -78 0
-66 -73 0
-66 -74 0
-66 -75 0
-66 -76 0
-66 -77 0
-67 -74 0
-67 -75 0
-67 -76 0
-67 -77 0
-67 -78 0
-68 -73 0
-68 -75 0
-68 -76 0
-68 -77 0
-68 -78 0
-69 -73 0
-69 -74 0
-69 -76 0
-69 -77 0
-69 -78 0
-70 -73 0
-70 -74 0
-70 -75 0
-70 -77 0
-70 -78 0
-71 -73 0
-71 -74 0
-71 -75 0
-71 -76 0
-71 -78 0
-72 -73 0
-72 -74 0
-72 -75 0
-72 -76 0
-72 -77 0
1 7 13 19 25 31 37 43 49 55 61 67 73 0 
2 8 14 20 26 32 38 44 50 56 62 68 74 0 
3 9 15 21 27 33 39 45 51 57 63 69 75 0 
4 10 16 22 28 34 40 46 52 58 64 70 76 0 
5 11 17 23 29 35 41 47 53 59 65 71 77 0 
6 12 18 24 30 36 42 48 54 60 66 72 78 0 
-2 -1 0
-3 -1 0
-4 -1 0
-5 -1 0
-6 -1 0
-3 -2 0
-4 -2 0
-5 -2 0
-6 -2 0
-4 -3 0
-5 -3 0
-6 -3 0
-5 -4 0
-6 -4 0
-6 -5 0
-8 -7 0
-9 -7 0
-10 -7 0
-11 -7 0
-12 -7 0
-9 -8 0
-10 -8 0
-11 -8 0
-12 -8 0
-10 -9 0
-11 -9 0
-12 -9 0
-11 -10 0
-12 -10 0
-12 -11 0
-14 -13 0
-15 -13 0
-16 -13 0
-17 -13 0
-18 -13 0
-15 -14 0
-16 -14 0
-17 -14 0
-18 -14 0
-16 -15 0
-17 -15 0
-18 -15 0
-17 -16 0
-18 -16 0
-18 -17 0
-20 -19 0
-21 -19 0
-22 -19 0
-23 -19 0
-24 -19 0
-21 -20 0
-22 -20 0
-23 -20 0
-24 -20 0
-22 -21 0
-23 -21 0
-24 -21 0
-23 -22 0
-24 -22 0
-24 -23 0
-26 -25 0
-27 -25 0
-28 -25 0
-29 -25 0
-30 -25 0
-27 -26 0
-28 -26 0
-29 -26 0
-30 -26 0
-28 -27 0
-29 -27 0
-30 -27 0
-29 -28 0
-30 -28 0
-30 -29 0
-32 -31 0
-33 -31 0
-34 -31 0
-35 -31 0
-36 -31 0
-33 -32 0
-34 -32 0
-35 -32 0
-36 -32 0
-34 -33 0
-35 -33 0
-36 -33 0
-35 -34 0
-36 -34 0
-36 -35 0
-38 -37 0
-39 -37 0
-40 -37 0
-41 -37 0
-42 -37 0
-39 -38 0
-40 -38 0
-41 -38 0
-42 -38 0
-40 -39 0
-41 -39 0
-42 -39 0
-41 -40 0
-42 -40 0
-42 -41 0
-44 -43 0
-45 -43 0
-46 -43 0
-47 -43 0
-48 -43 0
-45 -44 0
-46 -44 0
-47 -44 0
-48 -44 0
-46 -45 0
-47 -45 0
-48 -45 0
-47 -46 0
-48 -46 0
-48 -47 0
-50 -49 0
-51 -49 0
-52 -49 0
-53 -49 0
-54 -49 0
-51 -50 0
-52 -50 0
-53 -50 0
-54 -50 0
-52 -51 0
-53 -51 0
-54 -51 0
-53 -52 0
-54 -52 0
-54 -53 0
-56 -55 0
-57 -55 0
-58 -55 0
-59 -55 0
-60 -55 0
-57 -56 0
-58 -56 0
-59 -56 0
-60 -56 0
-58 -57 0
-59 -57 0
-60 -57 0
-59 -58 0
-60 -58 0
-60 -59 0
-62 -61 0
-63 -61 0
-64 -61 0
-65 -61 0
-66 -61 0
-63 -62 0
-64 -62 0
-65 -62 0
-66 -62 0
-64 -63 0
-65 -63 0
-66 -63 0
-65 -64 0
-66 -64 0
-66 -65 0
-68 -67 0
-69 -67 0
-70 -67 0
-71 -67 0
-72 -67 0
-69 -68 0
-70 -68 0
-71 -68 0
-72 -68 0
-70 -69 0
-71 -69 0
-72 -69 0
-71 -70 0
-72 -70 0
-72 -71 0
-74 -73 0
-75 -73 0
-76 -73 0
-77 -73 0
-78 -73 0
-75 -74 0
-76 -74 0
-77 -74 0
-78 -74 0
-76 -75 0
-77 -75 0
-78 -75 0
-77 -76 0
-78 -76 0
-78 -77 0
-1 -7 0
-2 -8 0
-3 -9 0
-4 -10 0
-5 -11 0
-6 -12 0
-1 -13 0
-2 -14 0
-3 -15 0
-4 -16 0
-5 -17 0
-6 -18 0
-1 -19 0
-2 -20 0
-3 -21 0
-4 -22 0
-5 -23 0
-6 -24 0
-1 -25 0
-2 -26 0
-3 -27 0
-4 -28 0
-5 -29 0
-6 -30 0
-1 -31 0
-2 -32 0
-3 -33 0
-4 -34 0
-5 -35 0
-6 -36 0
-1 -37 0
-2 -38 0
-3 -39 0
-4 -40 0
-5 -41 0
-6 -42 0
-1 -43 0
-2 -44 0
-3 -45 0
-4 -46 0
-5 -47 0
-6 -48 0
-1 -49 0
-2 -50 0
-3 -51 0
-4 -52 0
-5 -53 0
-6 -54 0
-1 -55 0
-2 -56 0
-3 -57 0
-4 -58 0
-5 -59 0
-6 -60 0
-1 -61 0
-2 -62 0
-3 -63 0
-4 -64 0
-5 -65 0
-6 -66 0
-1 -67 0
-2 -68 0
-3 -69 0
-4 -70 0
-5 -71 0
-6 -72 0
-1 -73 0
-2 -74 0
-3 -75 0
-4 -76 0
-5 -77 0
-6 -78 0
-7 -13 0
-8 -14 0
-9 -15 0
-10 -16 0
-11 -17 0
-12 -18 0
-7 -19 0
-8 -20 0
-9 -21 0
-10 -22 0
-11 -23 0
-12 -24 0
-7 -25 0
-8 -26 0
-9 -27 0
-10 -28 0
-11 -29 0
-12 -30 0
-7 -31 0
-8 -32 0
-9 -33 0
-10 -34 0
-11 -35 0
-12 -36 0
-7 -37 0
-8 -38 0
-9 -39 0
-10 -40 0
-11 -41 0
-12 -42 0
-7 -43 0
-8 -44 0
-9 -45 0
-10 -46 0
-11 -47 0
-12 -48 0
-7 -49 0
-8 -50 0
-9 -51 0
-10 -52 0
-11 -53 0
-12 -54 0
-7 -55 0
-8 -56 0
-9 -57 0
-10 -58 0
-11 -59 0
-12 -60 0
-7 -61 0
-8 -62 0
-9 -63 0
-10 -64 0
-11 -65 0
-12 -66 0
-7 -67 0
-8 -68 0
-9 -69 0
-10 -70 0
-11 -71 0
-12 -72 0
-7 -73 0
-8 -74 0
-9 -75 0
-10 -76 0
-11 -77 0
-12 -78 0
-13 -19 0
-14 -20 0
-15 -21 0
-16 -22 0
-17 -23 0
-18 -24 0
-13 -25 0
-14 -26 0
-15 -27 0
-16 -28 0
-17 -29 0
-18 -30 0
-13 -31 0
-14 -32 0
-15 -33 0
-16 -34 0
-17 -35 0
-18 -36 0
-13 -37 0
-14 -38 0
-15 -39 0
-16 -40 0
-17 -41 0
-18 -42 0
-13 -43 0
-14 -44 0
-15 -45 0
-16 -46 0
-17 -47 0
-18 -48 0
-13 -49 0
-14 -50 0
-15 -51 0
-16 -52 0
-17 -53 0
-18 -54 0
-13 -55 0
-14 -56 0
-15 -57 0
-16 -58 0
-17 -59 0
-18 -60 0
-13 -61 0
-14 -62 0
-15 -63 0
-16 -64 0
-17 -65 0
-18 -66 0
-13 -67 0
-14 -68 0
-15 -69 0
-16 -70 0
-17 -71 0
-18 -72 0
-13 -73 0
-14 -74 0
-15 -75 0
-16 -76 0
-17 -77 0
-18 -78 0
-19 -25 0
-20 -26 0
-21 -27 0
-22 -28 0
-23 -29 0
-24 -30 0
-19 -31 0
-20 -32 0
-21 -33 0
-22 -34 0
-23 -35 0
-24 -36 0
-19 -37 0
-20 -38 0
-21 -39 0
-22 -40 0
-23 -41 0
-24 -42 0
-19 -43 0
-20 -44 0
-21 -45 0
-22 -46 0
-23 -47 0
-24 -48 0
-19 -49 0
-20 -50 0
-21 -51 0
-22 -52 0
-23 -53 0
-24 -54 0
-19 -55 0
-20 -56 0
-21 -57 0
-22 -58 0
-23 -59 0
-24 -60 0
-19 -61 0
-20 -62 0
-21 -63 0
-22 -64 0
-23 -65 0
-24 -66 0
-19 -67 0
-20 -68 0
-21 -69 0
-22 -70 0
-23 -71 0
-24 -72 0
-19 -73 0
-20 -74 0
-21 -75 0
-22 -76 0
-23 -77 0
-24 -78 0
-25 -31 0
-26 -32 0
-27 -33 0
-28 -34 0
-29 -35 0
-30 -36 0
-25 -37 0
-26 -38 0
-27 -39 0
-28 -40 0
-29 -41 0
-30 -42 0
-25 -43 0
-26 -44 0
-27 -45 0
-28 -46 0
-29 -47 0
-30 -48 0
-25 -49 0
-26 -50 0
-27 -51 0
-28 -52 0
-29 -53 0
-30 -54 0
-25 -55 0
-26 -56 0
-27 -57 0
-28 -58 0
-29 -59 0
-30 -60 0
-25 -61 0
-26 -62 0
-27 -63 0
-28 -64 0
-29 -65 0
-30 -66 0
-25 -67 0
-26 -68 0
-27 -69 0
-28 -70 0
-29 -71 0
-30 -72 0
-25 -73 0
-26 -74 0
-27 -75 0
-28 -76 0
-29 -77 0
-30 -78 0
-31 -37 0
-32 -38 0
-33 -39 0
-34 -40 0
-35 -41 0
-36 -42 0
-31 -43 0
-32 -44 0
-33 -45 0
-34 -46 0
-35 -47 0
-36 -48 0
-31 -49 0
-32 -50 0
-33 -51 0
-34 -52 0
-35 -53 0
-36 -54 0
-31 -55 0
-32 -56 0
-33 -57 0
-34 -58 0
-35 -59 0
-36 -60 0
-31 -61 0
-32 -62 0
-33 -63 0
-34 -64 0
-35 -65 0
-36 -66 0
-31 -67 0
-32 -68 0
-33 -69 0
-34 -70 0
-35 -71 0
-36 -72 0
-31 -73 0
-32 -74 0
-33 -75 0
-34 -76 0
-35 -77 0
-36 -78 0
-37 -43 0
-38 -44 0
-39 -45 0
-40 -46 0
-41 -47 0
-42 -48 0
-37 -49 0
-38 -50 0
-39 -51 0
-40 -52 0
-41 -53 0
-42 -54 0
-37 -55 0
-38 -56 0
-39 -57 0
-40 -58 0
-41 -59 0
-42 -60 0
-37 -61 0
-38 -62 0
-39 -63 0
-40 -64 0
-41 -65 0
-42 -66 0
-37 -67 0
-38 -68 0
-39 -69 0
-40 -70 0
-41 -71 0
-42 -72 0
-37 -73 0
-38 -74 0
-39 -75 0
-40 -76 0
-41 -77 0
-42 -78 0
-43 -49 0
-44 -50 0
-45 -51 0
-46 -52 0
-47 -53 0
-48 -54 0
-43 -55 0
-44 -56 0
-45 -57 0
-46 -58 0
-47 -59 0
-48 -60 0
-43 -61 0
-44 -62 0
-45 -63 0
-46 -64 0
-47 -65 0
-48 -66 0
-43 -67 0
-44 -68 0
-45 -69 0
-46 -70 0
-47 -71 0
-48 -72 0
-43 -73 0
-44 -74 0
-45 -75 0
-46 -76 0
-47 -77 0
-48 -78 0
-49 -55 0
-50 -56 0
-51 -57 0
-52 -58 0
-53 -59 0
-54 -60 0
-49 -61 0
-50 -62 0
-51 -63 0
-52 -64 0
-53 -65 0
-54 -66 0
-49 -67 0
-50 -68 0
-51 -69 0
-52 -70 0
-53 -71 0
-54 -72 0
-49 -73 0
-50 -74 0
-51 -75 0
-52 -76 0
-53 -77 0
-54 -78 0
-55 -61 0
-56 -62 0
-57 -63 0
-58 -64 0
-59 -65 0
-60 -66 0
-55 -67 0
-56 -68 0
-57 -69 0
-58 -70 0
-59 -71 0
-60 -72 0
-55 -73 0
-56 -74 0
-57 -75 0
-58 -76 0
-59 -77 0
-60 -78 0
-61 -67 0
-62 -68 0
-63 -69 0
-64 -70 0
-65 -71 0
-66 -72 0
-61 -73 0
-62 -74 0
-63 -75 0
-64 -76 0
-65 -77 0
-66 -78 0
-67 -73 0
-68 -74 0
-69 -75 0
-70 -76 0
-71 -77 0
-72 -78 0
